(set-info :smt-lib-version 2.6)
(set-logic QF_UFNIA)
(set-info :source |
Generated by: David Deharbe, CLEARSY
Generated on: 2019-09-09
Generator: bxml;pog;pog2smt (Atelier B)
Application: B-method
Target solver: CVC4, Z3
|)
(set-info :license "https://creativecommons.org/licenses/by-nc/4.0/")
(set-info :category "industrial")
(set-info :status sat)
; Prelude
(declare-fun |*r| (Int Int) Int)
(declare-fun |+r| (Int Int) Int)
(declare-fun |-r| (Int Int) Int)
(declare-fun rdiv (Int Int) Int)
(declare-fun |<r| (Int Int) Bool)
(declare-fun |<=r| (Int Int) Bool)
(declare-fun |>r| (Int Int) Bool)
(declare-fun |>=r| (Int Int) Bool)
(declare-fun ruminus (Int) Int)
(declare-fun TRUE () Int)
(declare-fun FALSE () Int)
(assert (not (= TRUE FALSE)))
(declare-fun empty () Int)
(declare-fun bool (Bool) Int)
(declare-fun BOOL () Int)
(declare-fun INT () Int)
(declare-fun INTEGER () Int)
(declare-fun NAT () Int)
(declare-fun NAT1 () Int)
(declare-fun NATURAL () Int)
(declare-fun NATURAL1 () Int)
(declare-fun FLOAT () Int)
(declare-fun MaxInt () Int)
(declare-fun MinInt () Int)
(declare-fun |STRING| () Int)
(declare-fun REAL () Int)
(declare-fun set_prod (Int Int) Int)
(declare-fun set_diff (Int Int) Int)
(declare-fun mapplet (Int Int) Int)
(declare-fun |**i| (Int Int) Int)
(declare-fun |**r| (Int Int) Int)
(declare-fun |+->| (Int Int) Int)
(declare-fun |+->>| (Int Int) Int)
(declare-fun |-->| (Int Int) Int)
(declare-fun |-->>| (Int Int) Int)
(declare-fun |<->| (Int Int) Int)
(declare-fun |>+>| (Int Int) Int)
(declare-fun |>->| (Int Int) Int)
(declare-fun |>+>>| (Int Int) Int)
(declare-fun |>->>| (Int Int) Int)
(declare-fun |->| (Int Int) Int)
(declare-fun interval (Int Int) Int)
(declare-fun composition (Int Int) Int)
(declare-fun binary_inter (Int Int) Int)
(declare-fun restriction_head (Int Int) Int)
(declare-fun semicolon (Int Int) Int)
(declare-fun |<+| (Int Int) Int)
(declare-fun |<-| (Int Int) Int)
(declare-fun domain_subtraction (Int Int) Int)
(declare-fun domain_restriction (Int Int) Int)
(declare-fun |><| (Int Int) Int)
(declare-fun parallel_product (Int Int) Int)
(declare-fun binary_union (Int Int) Int)
(declare-fun restriction_tail (Int Int) Int)
(declare-fun concatenate (Int Int) Int)
(declare-fun range_restriction (Int Int) Int)
(declare-fun range_subtraction (Int Int) Int)
(declare-fun image (Int Int) Int)
(declare-fun apply (Int Int) Int)
(declare-fun prj1 (Int Int) Int)
(declare-fun prj2 (Int Int) Int)
(declare-fun iterate (Int Int) Int)
(declare-fun |const| (Int Int) Int)
(declare-fun rank (Int Int) Int)
(declare-fun father (Int Int) Int)
(declare-fun subtree (Int Int) Int)
(declare-fun arity (Int Int) Int)
(declare-fun |+f| (Int Int) Int)
(declare-fun |-f| (Int Int) Int)
(declare-fun |*f| (Int Int) Int)
(declare-fun |fdiv| (Int Int) Int)
(declare-fun tbin (Int Int Int) Int)
(declare-fun son (Int Int Int) Int)
(declare-fun mem (Int Int) Bool)
(declare-fun subset (Int Int) Bool)
(declare-fun strict_subset (Int Int) Bool)
(declare-fun |<=f| (Int Int) Bool)
(declare-fun |<f| (Int Int) Bool)
(declare-fun |>=f| (Int Int) Bool)
(declare-fun |>f| (Int Int) Bool)
(declare-fun imax (Int) Int)
(declare-fun imin (Int) Int)
(declare-fun rmax (Int) Int)
(declare-fun rmin (Int) Int)
(declare-fun card (Int) Int)
(declare-fun dom (Int) Int)
(declare-fun ran (Int) Int)
(declare-fun POW (Int) Int)
(declare-fun POW1 (Int) Int)
(declare-fun FIN (Int) Int)
(declare-fun FIN1 (Int) Int)
(declare-fun union (Int) Int)
(declare-fun inter (Int) Int)
(declare-fun seq (Int) Int)
(declare-fun seq1 (Int) Int)
(declare-fun iseq (Int) Int)
(declare-fun iseq1 (Int) Int)
(declare-fun inverse (Int) Int)
(declare-fun size (Int) Int)
(declare-fun perm (Int) Int)
(declare-fun first (Int) Int)
(declare-fun last (Int) Int)
(declare-fun id (Int) Int)
(declare-fun closure (Int) Int)
(declare-fun closure1 (Int) Int)
(declare-fun tail (Int) Int)
(declare-fun front (Int) Int)
(declare-fun reverse (Int) Int)
(declare-fun rev (Int) Int)
(declare-fun conc (Int) Int)
(declare-fun succ (Int) Int)
(declare-fun pred (Int) Int)
(declare-fun rel (Int) Int)
(declare-fun fnc (Int) Int)
(declare-fun real (Int) Int)
(declare-fun floor (Int) Int)
(declare-fun ceiling (Int) Int)
(declare-fun tree (Int) Int)
(declare-fun btree (Int) Int)
(declare-fun top (Int) Int)
(declare-fun sons (Int) Int)
(declare-fun prefix (Int) Int)
(declare-fun postfix (Int) Int)
(declare-fun sizet (Int) Int)
(declare-fun mirror (Int) Int)
(declare-fun left (Int) Int)
(declare-fun right (Int) Int)
(declare-fun infix (Int) Int)
(declare-fun ubin (Int) Int)
(declare-fun SEQ (Int) Int)
(declare-fun SET (Int) Int)
; Opaque formulas
(declare-fun g_s0_0 () Int)
(declare-fun g_s1_1 () Int)
(declare-fun g_s10_10 () Int)
(declare-fun g_s13_13 () Int)
(declare-fun g_s14_15 () Int)
(declare-fun g_s16_17 () Int)
(declare-fun g_s18_18 () Int)
(declare-fun g_s19_19 () Int)
(declare-fun g_s2_2 () Int)
(declare-fun g_s20_20 () Int)
(declare-fun g_s21_21 () Int)
(declare-fun g_s22_22 () Int)
(declare-fun g_s23_23 () Int)
(declare-fun g_s24_24 () Int)
(declare-fun g_s25_25 () Int)
(declare-fun g_s26_26 () Int)
(declare-fun g_s27_27 () Int)
(declare-fun g_s28_28 () Int)
(declare-fun g_s29_29 () Int)
(declare-fun g_s3_3 () Int)
(declare-fun g_s30_30 () Int)
(declare-fun g_s31_31 () Int)
(declare-fun g_s32_32 () Int)
(declare-fun g_s33_33 () Int)
(declare-fun g_s34_34 () Int)
(declare-fun g_s35_35 () Int)
(declare-fun g_s36_36 () Int)
(declare-fun g_s37_37 () Int)
(declare-fun g_s38_38 () Int)
(declare-fun g_s39_39 () Int)
(declare-fun g_s4_4 () Int)
(declare-fun g_s40_40 () Int)
(declare-fun g_s41_41 () Int)
(declare-fun g_s42_42 () Int)
(declare-fun g_s43_43 () Int)
(declare-fun g_s44_44 () Int)
(declare-fun g_s45_45 () Int)
(declare-fun g_s46_46 () Int)
(declare-fun g_s47_47 () Int)
(declare-fun g_s48_48 () Int)
(declare-fun g_s49_49 () Int)
(declare-fun g_s5_5 () Int)
(declare-fun g_s50_50 () Int)
(declare-fun g_s51_51 () Int)
(declare-fun g_s52_52 () Int)
(declare-fun g_s53_53 () Int)
(declare-fun g_s54_54 () Int)
(declare-fun g_s55_55 () Int)
(declare-fun g_s56_56 () Int)
(declare-fun g_s57_57 () Int)
(declare-fun g_s58_58 () Int)
(declare-fun g_s59_59 () Int)
(declare-fun g_s6_6 () Int)
(declare-fun g_s60_60 () Int)
(declare-fun g_s61_61 () Int)
(declare-fun g_s62_62 () Int)
(declare-fun g_s63_63 () Int)
(declare-fun g_s64_64 () Int)
(declare-fun g_s65_65 () Int)
(declare-fun g_s66_66 () Int)
(declare-fun g_s67_67 () Int)
(declare-fun g_s68_68 () Int)
(declare-fun g_s69_69 () Int)
(declare-fun g_s7_7 () Int)
(declare-fun g_s70_70 () Int)
(declare-fun g_s71_71 () Int)
(declare-fun g_s72_72 () Int)
(declare-fun g_s73_73 () Int)
(declare-fun g_s74_74 () Int)
(declare-fun g_s75_75 () Int)
(declare-fun g_s76_76 () Int)
(declare-fun g_s77_77 () Int)
(declare-fun g_s78_78 () Int)
(declare-fun g_s79_79 () Int)
(declare-fun g_s8_8 () Int)
(declare-fun g_s80_80 () Int)
(declare-fun g_s81_81 () Int)
(declare-fun g_s82_82 () Int)
(declare-fun g_s83_83 () Int)
(declare-fun g_s84_84 () Int)
(declare-fun g_s85_85 () Int)
(declare-fun g_s86_86 () Int)
(declare-fun g_s87_87 () Int)
(declare-fun g_s88_88 () Int)
(declare-fun g_s89_89 () Int)
(declare-fun g_s9_9 () Int)
(declare-fun g_s90_90 () Int)
(declare-fun g_s91_91 () Int)
(declare-fun g_s92_92 () Int)
(declare-fun g_s94_93 () Int)
(declare-fun g_s94$1_94 () Int)
(declare-fun g_s95_95 () Int)
(declare-fun g_s96$1_96 () Int)
(declare-fun e14 () Int)
(declare-fun e16 () Int)
(declare-fun e12 () Int)
(declare-fun e11 () Int)
; Defines
(define-fun |def_B definitions| () Bool (and (= NAT (interval 0 MaxInt)) (= INT (interval MinInt MaxInt))))
(define-fun |def_ctx| () Bool (and (not (= g_s0_0 empty)) (not (= g_s1_1 empty)) (not (= g_s2_2 empty)) (not (= g_s3_3 empty)) (not (= g_s4_4 empty)) (not (= g_s5_5 empty)) (not (= g_s6_6 empty)) (not (= g_s7_7 empty)) (not (= g_s8_8 empty)) (not (= g_s9_9 empty)) (mem g_s10_10 (|-->| (set_prod INTEGER NATURAL) INTEGER)) (= g_s10_10 (binary_union e12 e11)) (mem g_s13_13 (|-->| BOOL NAT)) (= g_s13_13 (SET (mapplet (mapplet FALSE 0) (mapplet TRUE 1)))) (= g_s14_15 e14) (= g_s16_17 e16) (mem g_s18_18 NAT1) (= g_s18_18 MaxInt) (mem g_s19_19 NAT1) (mem g_s20_20 NAT1) (mem g_s21_21 NAT1) (mem g_s22_22 NAT1) (mem g_s23_23 NAT1) (= g_s22_22 60) (= g_s23_23 32) (mem g_s24_24 INT) (mem g_s25_25 INT) (mem g_s26_26 INT) (mem g_s27_27 INT) (mem g_s28_28 INT)))
(define-fun |def_seext| () Bool (and (= g_s29_29 TRUE) (= g_s30_30 FALSE) (= g_s31_31 0) (= g_s32_32 1) (= g_s33_33 2) (= g_s34_34 3) (= g_s35_35 4) (= g_s36_36 5) (= g_s37_37 6) (= g_s38_38 7) (= g_s39_39 8) (= g_s40_40 9) (= g_s41_41 10) (= g_s42_42 11) (= g_s43_43 12) (= g_s44_44 13) (= g_s45_45 14) (= g_s46_46 15) (= g_s47_47 16) (= g_s48_48 17) (= g_s49_49 18) (= g_s50_50 19) (= g_s51_51 20) (= g_s52_52 21) (= g_s53_53 22) (= g_s54_54 23) (= g_s55_55 24) (= g_s56_56 25) (= g_s57_57 26) (= g_s58_58 27) (= g_s59_59 28) (= g_s60_60 29) (= g_s61_61 30) (= g_s62_62 31) (= g_s63_63 32) (= g_s64_64 33) (= g_s65_65 34) (= g_s66_66 35) (= g_s67_67 36) (= g_s68_68 37) (= g_s69_69 38) (= g_s70_70 39) (= g_s71_71 40) (= g_s72_72 41) (= g_s73_73 42) (= g_s74_74 43) (= g_s75_75 44) (= g_s76_76 45) (= g_s77_77 46) (= g_s78_78 47) (= g_s79_79 48) (= g_s80_80 49) (= g_s81_81 50) (= g_s82_82 51) (= g_s83_83 52) (= g_s84_84 53) (= g_s85_85 54) (= g_s86_86 55) (= g_s87_87 56) (= g_s88_88 57) (= g_s89_89 58) (= g_s90_90 59) (mem g_s91_91 g_s8_8)))
(define-fun |def_mchcst| () Bool true)
(define-fun |def_aprp| () Bool  (= g_s92_92 NAT))
(define-fun |def_abs| () Bool true)
(define-fun |def_inv| () Bool true)
(define-fun |def_ass| () Bool true)
(define-fun |def_sets| () Bool true)
(define-fun |def_imlprp| () Bool  (= g_s92_92 NAT))
(define-fun |def_imprp| () Bool true)
(define-fun |def_imext| () Bool true)
; PO group 0 
(assert |def_B definitions|)
(assert |def_ctx|)
(assert |def_mchcst|)
(assert |def_aprp|)
(assert |def_imlprp|)
(assert |def_imprp|)
(assert |def_imext|)
(assert |def_seext|)
(assert |def_abs|)
(assert |def_inv|)
(assert |def_ass|)
(assert (= g_s94$1_94 g_s94_93))
(define-fun lh_1 () Bool (mem g_s95_95 g_s0_0))
(define-fun lh_2 () Bool (mem g_s96$1_96 INTEGER))
(define-fun lh_3 () Bool (not (= (bool (and (= (bool (>= g_s96$1_96 0)) TRUE) (= (bool (<= g_s96$1_96 g_s18_18)) TRUE))) FALSE)))
; PO 1 in group 0
(assert (not (=> (and lh_1 lh_2 lh_3) (mem g_s96$1_96 g_s92_92))))
(check-sat)
(exit)